Generated by Phonopy-Spectroscopy
   1.0000000000000000
     0.0000000000000000     2.7178473587822172     2.7178473587822172
     2.7178473587822172     0.0000000000000000     2.7178473587822172
     2.7178473587822172     2.7178473587822172     0.0000000000000000
 Si
 2
Direct
     0.2497174302815998     0.2497983565233330     0.2502016434766670
     0.0002825697184002     0.0002016434766670     0.9997983565233330
