Generated by Phonopy-Spectroscopy
   1.0000000000000000
     0.0000000000000000     2.7178473587822172     2.7178473587822172
     2.7178473587822172     0.0000000000000000     2.7178473587822172
     2.7178473587822172     2.7178473587822172     0.0000000000000000
 Si
 2
Direct
     0.2497545354023091     0.2502454645976909     0.2502454645976908
     0.0002454645976909     0.9997545354023091     0.9997545354023091
