generated by phonopy
   1.0
     0.0000000000000000    2.7178473587822172    2.7178473587822172
     2.7178473587822172    0.0000000000000000    2.7178473587822172
     2.7178473587822172    2.7178473587822172    0.0000000000000000
Si
   2
Direct
  0.2500000000000000  0.2500000000000000  0.2500000000000000
  0.0000000000000000  0.0000000000000000  0.0000000000000000
