SnSe-Pnma                               
  0.99988381667912996     
     4.3303900937974253    0.0000000000000000   -0.0000000000000000
     0.0000000000000000   11.3473599299435577    0.0000000000000000
     0.0000000000000001    0.0000000000000000    4.1202619602809749
   Se   Sn
     4     4
Direct
  0.4729123385068344  0.8568933490009238  0.2500000000000000
  0.5270876914931688  0.1431066659990815  0.7500000000000000
  0.9729123085068312  0.6431066509990762  0.7500000000000000
  0.0270876614931661  0.3568933490009235  0.2500000000000000
  0.0970636255982213  0.1151771123599371  0.2500000000000000
  0.9029363894017763  0.8848228576400677  0.7500000000000000
  0.5970636105982237  0.3848228876400624  0.7500000000000000
  0.4029363894017766  0.6151771423599323  0.2500000000000000

  0.00000000E+00  0.00000000E+00  0.00000000E+00
  0.00000000E+00  0.00000000E+00  0.00000000E+00
  0.00000000E+00  0.00000000E+00  0.00000000E+00
  0.00000000E+00  0.00000000E+00  0.00000000E+00
  0.00000000E+00  0.00000000E+00  0.00000000E+00
  0.00000000E+00  0.00000000E+00  0.00000000E+00
  0.00000000E+00  0.00000000E+00  0.00000000E+00
  0.00000000E+00  0.00000000E+00  0.00000000E+00
